WARNING: for repeatability, setting FPU to use double precision
============================[ Problem Statistics ]=============================
|                                                                             |
|  Number of variables:           455                                         |
|  Number of clauses:            2088                                         |
|  Parse time:                   0.00 s                                       |
|                                                                             |
============================[ Search Statistics ]==============================
| Conflicts |          ORIGINAL         |          LEARNT          | Progress |
|           |    Vars  Clauses Literals |    Limit  Clauses Lit/Cl |          |
===============================================================================
|       100 |     455     2088     6960 |      765      100      4 |  0.000 % |
===============================================================================
restarts              : 3
conflicts             : 200            (100050 /sec)
decisions             : 832            (0.00 % random) (416208 /sec)
propagations          : 8920           (4462231 /sec)
conflict literals     : 1663           (9.27 % deleted)
Memory used           : 6.00 MB
CPU time              : 0.001999 s

SATISFIABLE
